$ https://logicmastersindia.com/forum/forums/thread-view.asp?tid=140
$ basically one grid, with "tutorial" steps

letting grid be 9
letting starcount be 2
letting numblocks be 9


letting blocks be 
[
    [1,1,1,1,2,2,2,2,2],
    [1,1,2,2,2,2,3,2,2],
    [1,1,1,3,3,3,3,4,4],
    [1,5,5,6,3,3,3,4,4],
    [5,5,5,6,6,3,3,3,4],
    [5,5,5,6,6,6,4,4,4],
    [5,7,5,5,8,4,4,9,4],
    [7,7,7,8,8,8,9,9,9],
    [7,7,7,8,8,8,9,9,9],
]
